40
1 0 17
2 0 55
2 1 14
3 0 45
3 1 1
3 2 31
4 0 54
4 1 64
4 2 6
4 3 53
5 0 2
5 1 56
5 2 21
5 3 5
5 4 31
6 0 21
6 1 57
6 2 38
6 3 56
6 4 60
6 5 43
7 0 19
7 1 17
7 2 40
7 3 28
7 4 53
7 5 68
7 6 28
8 0 73
8 1 31
8 2 50
8 3 5
8 4 36
8 5 10
8 6 58
8 7 53
9 0 35
9 1 10
9 2 7
9 3 4
9 4 31
9 5 31
9 6 75
9 7 14
9 8 19
10 0 31
10 1 22
10 2 47
10 3 61
10 4 24
10 5 36
10 6 47
10 7 40
10 8 11
10 9 55
11 0 32
11 1 57
11 2 20
11 3 71
11 4 69
11 5 19
11 6 64
11 7 61
11 8 40
11 9 10
11 10 44
12 0 75
12 1 46
12 2 7
12 3 41
12 4 46
12 5 47
12 6 44
12 7 2
12 8 56
12 9 55
12 10 42
12 11 71
13 0 50
13 1 54
13 2 52
13 3 66
13 4 68
13 5 33
13 6 27
13 7 61
13 8 30
13 9 72
13 10 54
13 11 36
13 12 38
14 0 16
14 1 52
14 2 44
14 3 30
14 4 3
14 5 47
14 6 24
14 7 6
14 8 47
14 9 3
14 10 10
14 11 30
14 12 57
14 13 51
15 0 31
15 1 31
15 2 49
15 3 59
15 4 65
15 5 15
15 6 4
15 7 19
15 8 29
15 9 61
15 10 59
15 11 18
15 12 71
15 13 13
15 14 22
16 0 18
16 1 60
16 2 72
16 3 35
16 4 50
16 5 64
16 6 56
16 7 4
16 8 52
16 9 13
16 10 11
16 11 26
16 12 44
16 13 71
16 14 36
16 15 74
17 0 4
17 1 19
17 2 27
17 3 74
17 4 8
17 5 44
17 6 13
17 7 29
17 8 46
17 9 75
17 10 35
17 11 22
17 12 43
17 13 9
17 14 33
17 15 58
17 16 44
18 0 56
18 1 27
18 2 30
18 3 18
18 4 29
18 5 30
18 6 3
18 7 27
18 8 15
18 9 23
18 10 24
18 11 17
18 12 15
18 13 67
18 14 62
18 15 27
18 16 39
18 17 9
19 0 75
19 1 32
19 2 23
19 3 48
19 4 26
19 5 15
19 6 20
19 7 41
19 8 15
19 9 69
19 10 21
19 11 6
19 12 33
19 13 25
19 14 28
19 15 38
19 16 53
19 17 12
19 18 71
20 0 11
20 1 9
20 2 73
20 3 9
20 4 48
20 5 32
20 6 46
20 7 54
20 8 45
20 9 18
20 10 46
20 11 3
20 12 38
20 13 57
20 14 27
20 15 35
20 16 27
20 17 66
20 18 60
20 19 56
21 0 21
21 1 73
21 2 6
21 3 22
21 4 35
21 5 44
21 6 31
21 7 68
21 8 73
21 9 53
21 10 67
21 11 63
21 12 2
21 13 35
21 14 19
21 15 72
21 16 17
21 17 38
21 18 51
21 19 41
21 20 47
22 0 17
22 1 15
22 2 1
22 3 45
22 4 48
22 5 20
22 6 28
22 7 67
22 8 61
22 9 43
22 10 39
22 11 30
22 12 54
22 13 8
22 14 36
22 15 40
22 16 19
22 17 11
22 18 13
22 19 9
22 20 55
22 21 52
23 0 35
23 1 28
23 2 72
23 3 23
23 4 35
23 5 17
23 6 67
23 7 45
23 8 32
23 9 5
23 10 20
23 11 65
23 12 40
23 13 58
23 14 66
23 15 21
23 16 49
23 17 48
23 18 31
23 19 5
23 20 52
23 21 17
23 22 61
24 0 24
24 1 13
24 2 55
24 3 58
24 4 20
24 5 15
24 6 7
24 7 57
24 8 45
24 9 63
24 10 64
24 11 47
24 12 50
24 13 56
24 14 66
24 15 65
24 16 67
24 17 27
24 18 4
24 19 69
24 20 62
24 21 14
24 22 58
24 23 4
25 0 27
25 1 62
25 2 59
25 3 65
25 4 23
25 5 70
25 6 51
25 7 29
25 8 29
25 9 12
25 10 14
25 11 26
25 12 72
25 13 51
25 14 72
25 15 69
25 16 35
25 17 8
25 18 37
25 19 15
25 20 23
25 21 51
25 22 39
25 23 21
25 24 28
26 0 9
26 1 66
26 2 29
26 3 56
26 4 34
26 5 51
26 6 53
26 7 20
26 8 62
26 9 32
26 10 64
26 11 57
26 12 3
26 13 21
26 14 65
26 15 23
26 16 25
26 17 45
26 18 37
26 19 66
26 20 44
26 21 46
26 22 75
26 23 2
26 24 8
26 25 52
27 0 51
27 1 54
27 2 44
27 3 48
27 4 1
27 5 16
27 6 60
27 7 72
27 8 69
27 9 59
27 10 29
27 11 75
27 12 59
27 13 52
27 14 39
27 15 43
27 16 4
27 17 30
27 18 33
27 19 17
27 20 36
27 21 36
27 22 9
27 23 26
27 24 47
27 25 14
27 26 48
28 0 67
28 1 75
28 2 66
28 3 67
28 4 23
28 5 62
28 6 65
28 7 47
28 8 68
28 9 40
28 10 2
28 11 25
28 12 67
28 13 35
28 14 48
28 15 3
28 16 49
28 17 17
28 18 13
28 19 20
28 20 11
28 21 52
28 22 55
28 23 52
28 24 31
28 25 62
28 26 51
28 27 6
29 0 40
29 1 46
29 2 45
29 3 66
29 4 45
29 5 51
29 6 43
29 7 18
29 8 47
29 9 52
29 10 23
29 11 33
29 12 14
29 13 35
29 14 60
29 15 1
29 16 37
29 17 14
29 18 41
29 19 2
29 20 4
29 21 34
29 22 18
29 23 32
29 24 4
29 25 5
29 26 63
29 27 8
29 28 34
30 0 31
30 1 11
30 2 30
30 3 70
30 4 18
30 5 31
30 6 11
30 7 37
30 8 2
30 9 42
30 10 17
30 11 30
30 12 16
30 13 11
30 14 45
30 15 45
30 16 5
30 17 2
30 18 4
30 19 62
30 20 68
30 21 24
30 22 6
30 23 5
30 24 72
30 25 25
30 26 65
30 27 15
30 28 5
30 29 29
31 0 13
31 1 54
31 2 11
31 3 46
31 4 33
31 5 10
31 6 60
31 7 36
31 8 49
31 9 25
31 10 66
31 11 24
31 12 52
31 13 70
31 14 47
31 15 9
31 16 14
31 17 38
31 18 58
31 19 49
31 20 8
31 21 15
31 22 55
31 23 31
31 24 40
31 25 11
31 26 57
31 27 70
31 28 44
31 29 38
31 30 55
32 0 49
32 1 15
32 2 25
32 3 65
32 4 22
32 5 20
32 6 35
32 7 44
32 8 26
32 9 38
32 10 72
32 11 27
32 12 24
32 13 63
32 14 4
32 15 9
32 16 44
32 17 23
32 18 44
32 19 55
32 20 14
32 21 58
32 22 20
32 23 41
32 24 70
32 25 67
32 26 18
32 27 75
32 28 40
32 29 9
32 30 72
32 31 56
33 0 45
33 1 54
33 2 21
33 3 69
33 4 69
33 5 13
33 6 8
33 7 35
33 8 14
33 9 19
33 10 18
33 11 37
33 12 6
33 13 55
33 14 13
33 15 22
33 16 44
33 17 46
33 18 65
33 19 26
33 20 47
33 21 13
33 22 74
33 23 42
33 24 49
33 25 27
33 26 70
33 27 33
33 28 51
33 29 13
33 30 50
33 31 75
33 32 66
34 0 11
34 1 28
34 2 49
34 3 63
34 4 17
34 5 7
34 6 27
34 7 65
34 8 29
34 9 15
34 10 51
34 11 15
34 12 62
34 13 24
34 14 53
34 15 66
34 16 64
34 17 53
34 18 61
34 19 47
34 20 34
34 21 52
34 22 61
34 23 4
34 24 27
34 25 30
34 26 2
34 27 1
34 28 7
34 29 63
34 30 9
34 31 63
34 32 15
34 33 22
35 0 73
35 1 72
35 2 58
35 3 23
35 4 59
35 5 2
35 6 65
35 7 72
35 8 19
35 9 29
35 10 39
35 11 11
35 12 31
35 13 71
35 14 30
35 15 65
35 16 45
35 17 30
35 18 23
35 19 8
35 20 53
35 21 29
35 22 3
35 23 36
35 24 27
35 25 23
35 26 33
35 27 62
35 28 73
35 29 45
35 30 39
35 31 48
35 32 62
35 33 64
35 34 75
36 0 43
36 1 34
36 2 75
36 3 53
36 4 62
36 5 75
36 6 34
36 7 49
36 8 74
36 9 36
36 10 2
36 11 59
36 12 42
36 13 4
36 14 62
36 15 40
36 16 30
36 17 43
36 18 49
36 19 65
36 20 52
36 21 21
36 22 36
36 23 37
36 24 15
36 25 17
36 26 4
36 27 12
36 28 72
36 29 61
36 30 54
36 31 33
36 32 50
36 33 52
36 34 73
36 35 32
37 0 22
37 1 52
37 2 33
37 3 5
37 4 66
37 5 43
37 6 14
37 7 15
37 8 31
37 9 65
37 10 35
37 11 41
37 12 15
37 13 14
37 14 50
37 15 8
37 16 22
37 17 30
37 18 48
37 19 58
37 20 55
37 21 64
37 22 68
37 23 7
37 24 58
37 25 47
37 26 34
37 27 40
37 28 23
37 29 6
37 30 68
37 31 51
37 32 6
37 33 48
37 34 41
37 35 8
37 36 44
38 0 29
38 1 21
38 2 4
38 3 43
38 4 49
38 5 45
38 6 69
38 7 46
38 8 20
38 9 6
38 10 28
38 11 18
38 12 44
38 13 9
38 14 46
38 15 32
38 16 54
38 17 54
38 18 60
38 19 44
38 20 48
38 21 54
38 22 9
38 23 19
38 24 66
38 25 49
38 26 51
38 27 16
38 28 14
38 29 17
38 30 15
38 31 49
38 32 19
38 33 6
38 34 38
38 35 52
38 36 33
38 37 16
39 0 69
39 1 21
39 2 3
39 3 31
39 4 13
39 5 23
39 6 41
39 7 35
39 8 48
39 9 46
39 10 2
39 11 70
39 12 58
39 13 72
39 14 34
39 15 66
39 16 1
39 17 22
39 18 50
39 19 69
39 20 61
39 21 70
39 22 20
39 23 12
39 24 25
39 25 30
39 26 52
39 27 14
39 28 1
39 29 74
39 30 18
39 31 6
39 32 1
39 33 29
39 34 58
39 35 8
39 36 28
39 37 4
39 38 24
